BAYES
223
2 2 2 2 2 2 2 2 2 2 2 2 2 2 2 2 2 2 2 2 2 2 2 2 2 2 2 2 2 2 2 2 2 2 2 2 2 2 2 2 2 2 2 2 2 2 2 2 2 2 2 2 2 2 2 2 2 2 2 2 2 2 2 2 2 2 2 2 2 2 2 2 2 2 2 2 2 2 2 2 2 2 2 2 2 2 2 2 2 2 2 2 2 2 2 2 2 2 2 2 2 2 2 2 2 2 2 2 2 2 2 2 2 2 2 2 2 2 2 2 2 2 2 2 2 2 2 2 2 2 2 2 2 2 2 2 2 2 2 2 2 2 2 2 2 2 2 2 2 2 2 2 2 2 2 2 2 2 2 2 2 2 2 2 2 2 2 2 2 2 2 2 2 2 2 2 2 2 2 2 2 2 2 2 2 2 2 2 2 2 2 2 2 2 2 2 2 2 2 2 2 2 2 2 2 2 2 2 2 2 2 2 2 2 2 2 2 2 2 2 2 2 2
223
1 0
1 1
1 2
1 3
2 89 4
1 5
1 6
1 7
1 8
1 9
1 10
1 11
1 12
1 13
1 14
1 15
1 16
1 17
1 18
1 19
1 20
1 21
1 22
1 23
4 1 111 61 24
3 8 24 25
4 221 138 24 26
3 222 26 27
3 222 26 28
3 20 28 29
3 21 28 30
3 22 29 31
3 22 29 32
3 23 28 33
3 20 27 34
3 21 27 35
3 22 34 36
3 22 34 37
4 14 125 116 38
4 14 129 116 39
4 14 134 129 40
4 95 94 93 41
3 208 41 42
5 2 42 158 146 43
3 23 27 44
1 45
3 9 45 46
5 200 46 174 168 47
3 5 47 48
4 69 170 47 49
4 0 170 47 50
3 6 50 51
4 220 175 50 52
3 219 52 53
4 104 53 152 54
4 105 53 164 55
4 106 53 171 56
4 107 53 172 57
4 14 185 184 58
3 14 185 59
3 100 99 60
3 205 60 61
3 7 61 62
4 15 141 61 63
4 11 141 61 64
3 16 64 65
1 66
1 67
2 89 68
1 69
1 70
1 71
1 72
1 73
1 74
1 75
1 76
2 89 77
1 78
1 79
1 80
1 81
1 82
1 83
1 84
1 85
1 86
1 87
1 88
1 89
1 90
3 154 12 91
3 35 84 92
3 38 211 93
3 39 9 94
3 40 211 95
2 19 96
4 167 150 80 97
3 113 81 98
3 58 211 99
3 59 9 100
3 28 85 101
3 30 84 102
3 27 85 103
1 104
1 105
1 106
1 107
1 108
1 109
3 75 64 110
5 17 193 188 63 111
3 82 25 112
1 113
3 102 101 114
3 84 32 115
6 213 115 32 195 194 116
3 84 31 117
4 214 31 190 118
5 13 118 117 192 119
1 120
6 213 117 31 192 191 121
3 84 33 122
6 215 122 33 110 160 123
6 87 122 114 28 158 124
4 197 114 28 125
3 92 103 126
1 127
3 84 37 128
6 213 128 37 195 194 129
3 84 36 130
6 215 130 36 192 190 131
6 213 130 36 192 191 132
6 87 139 126 27 158 133
4 197 126 27 134
1 135
1 136
3 67 43 137
3 3 112 138
3 84 33 139
6 212 139 44 110 160 140
3 86 187 141
1 142
1 143
1 144
1 145
3 83 142 146
3 66 146 147
3 209 147 148
3 108 136 149
3 10 113 150
3 98 97 151
4 76 49 151 152
3 210 152 153
1 154
3 209 153 155
3 18 109 156
3 10 109 157
3 70 64 158
3 210 158 159
1 160
3 209 159 161
3 10 189 162
4 80 162 186 163
4 71 49 163 164
3 210 164 165
3 209 165 166
3 216 154 167
1 168
4 198 48 143 169
3 79 169 170
3 72 49 171
4 73 49 157 172
4 82 51 180 173
1 174
3 3 173 175
3 84 54 176
5 90 176 54 153 177
3 84 55 178
4 212 178 55 179
1 180
3 84 56 181
4 212 181 56 182
3 84 57 183
7 78 183 181 178 176 53 184
5 212 183 57 160 185
3 96 91 186
3 199 62 187
4 88 63 149 188
1 189
6 77 196 127 120 188 190
4 4 196 120 191
4 74 188 63 192
5 217 63 156 142 193
3 218 193 194
4 74 193 63 195
1 196
1 197
1 198
1 199
2 201 200
1 201
2 201 202
2 201 203
2 201 204
2 206 205
1 206
2 206 207
1 208
1 209
1 210
1 211
1 212
1 213
1 214
1 215
1 216
1 217
1 218
1 219
1 220
1 221
1 222

2
0.5 0.5
2
0.5 0.5
2
0.5 0.5
2
0.2 0.8
4
0.2 1.0 0.8 0.0
2
0.5 0.5
2
0.5 0.5
2
0.5 0.5
2
0.5 0.5
2
0.5 0.5
2
0.5 0.5
2
0.5 0.5
2
0.5 0.5
2
0.4 0.6
2
0.6 0.4
2
0.5 0.5
2
0.7 0.3
2
0.2 0.8
2
0.1 0.9
2
0.02 0.98
2
0.5 0.5
2
0.6 0.4
2
0.5 0.5
2
0.5 0.5
16
0.8 0.8 0.8 0.8 0.8 0.8 0.8 8e-05 0.2 0.2 0.2 0.2 0.2 0.2 0.2 0.99992
8
0.8 0.8 0.8 8e-05 0.2 0.2 0.2 0.99992
16
0.8 0.8 0.8 0.8 0.8 0.8 0.8 8e-05 0.2 0.2 0.2 0.2 0.2 0.2 0.2 0.99992
8
0.8 0.8 0.8 8e-05 0.2 0.2 0.2 0.99992
8
0.8 0.8 0.8 8e-05 0.2 0.2 0.2 0.99992
8
0.8 0.8 0.8 8e-05 0.2 0.2 0.2 0.99992
8
0.8 0.8 0.8 8e-05 0.2 0.2 0.2 0.99992
8
0.8 0.8 0.8 8e-05 0.2 0.2 0.2 0.99992
8
0.8 0.8 0.8 8e-05 0.2 0.2 0.2 0.99992
8
0.8 0.8 0.8 8e-05 0.2 0.2 0.2 0.99992
8
0.8 0.8 0.8 8e-05 0.2 0.2 0.2 0.99992
8
0.8 0.8 0.8 8e-05 0.2 0.2 0.2 0.99992
8
0.8 0.8 0.8 8e-05 0.2 0.2 0.2 0.99992
8
0.8 0.8 0.8 8e-05 0.2 0.2 0.2 0.99992
16
0.8 0.8 0.8 0.8 0.8 0.8 0.8 8e-05 0.2 0.2 0.2 0.2 0.2 0.2 0.2 0.99992
16
0.8 0.8 0.8 0.8 0.8 0.8 0.8 8e-05 0.2 0.2 0.2 0.2 0.2 0.2 0.2 0.99992
16
0.8 0.8 0.8 0.8 0.8 0.8 0.8 8e-05 0.2 0.2 0.2 0.2 0.2 0.2 0.2 0.99992
16
0.8 0.0 0.0 0.0 0.0 0.0 0.0 0.0 0.2 1.0 1.0 1.0 1.0 1.0 1.0 1.0
8
0.7 0.7 0.7 7e-05 0.3 0.3 0.3 0.99993
32
0.8 0.8 0.8 0.8 0.8 0.8 0.8 0.8 0.8 0.8 0.8 0.8 0.8 0.8 0.8 8e-05 0.2 0.2 0.2 0.2 0.2 0.2 0.2 0.2 0.2 0.2 0.2 0.2 0.2 0.2 0.2 0.99992
8
0.8 0.8 0.8 8e-05 0.2 0.2 0.2 0.99992
2
0.02 0.98
8
0.8 0.8 0.8 8e-05 0.2 0.2 0.2 0.99992
32
0.8 0.8 0.8 0.8 0.8 0.8 0.8 0.8 0.8 0.8 0.8 0.8 0.8 0.8 0.8 8e-05 0.2 0.2 0.2 0.2 0.2 0.2 0.2 0.2 0.2 0.2 0.2 0.2 0.2 0.2 0.2 0.99992
8
0.8 0.8 0.8 8e-05 0.2 0.2 0.2 0.99992
16
0.8 0.8 0.8 0.8 0.8 0.8 0.8 8e-05 0.2 0.2 0.2 0.2 0.2 0.2 0.2 0.99992
16
0.8 0.8 0.8 0.8 0.8 0.8 0.8 8e-05 0.2 0.2 0.2 0.2 0.2 0.2 0.2 0.99992
8
0.8 0.8 0.8 8e-05 0.2 0.2 0.2 0.99992
16
0.8 0.8 0.8 0.8 0.8 0.8 0.8 8e-05 0.2 0.2 0.2 0.2 0.2 0.2 0.2 0.99992
8
0.8 0.8 0.8 8e-05 0.2 0.2 0.2 0.99992
16
0.8 0.8 0.8 0.8 0.8 0.8 0.8 8e-05 0.2 0.2 0.2 0.2 0.2 0.2 0.2 0.99992
16
0.8 0.8 0.8 0.8 0.8 0.8 0.8 8e-05 0.2 0.2 0.2 0.2 0.2 0.2 0.2 0.99992
16
0.8 0.8 0.8 0.8 0.8 0.8 0.8 8e-05 0.2 0.2 0.2 0.2 0.2 0.2 0.2 0.99992
16
0.8 0.8 0.8 0.8 0.8 0.8 0.8 8e-05 0.2 0.2 0.2 0.2 0.2 0.2 0.2 0.99992
16
0.8 0.8 0.8 0.8 0.8 0.8 0.8 8e-05 0.2 0.2 0.2 0.2 0.2 0.2 0.2 0.99992
8
0.8 0.8 0.8 8e-05 0.2 0.2 0.2 0.99992
8
0.8 0.0 0.0 0.0 0.2 1.0 1.0 1.0
8
0.8 0.8 0.8 8e-05 0.2 0.2 0.2 0.99992
8
0.8 0.8 0.8 8e-05 0.2 0.2 0.2 0.99992
16
0.7 0.7 0.7 0.7 0.7 0.7 0.7 7e-05 0.3 0.3 0.3 0.3 0.3 0.3 0.3 0.99993
16
0.8 0.8 0.8 0.8 0.8 0.8 0.8 8e-05 0.2 0.2 0.2 0.2 0.2 0.2 0.2 0.99992
8
0.8 0.8 0.8 8e-05 0.2 0.2 0.2 0.99992
2
0.5 0.5
2
0.5 0.5
4
0.8 0.0 0.2 1.0
2
0.5 0.5
2
0.5 0.5
2
0.5 0.5
2
0.5 0.5
2
0.6 0.4
2
0.5 0.5
2
0.5 0.5
2
0.5 0.5
4
1.0 0.0 0.0 1.0
2
0.5 0.5
2
0.5 0.5
2
0.5 0.5
2
0.5 0.5
2
0.5 0.5
2
0.5 0.5
2
0.5 0.5
2
0.5 0.5
2
0.5 0.5
2
0.5 0.5
2
0.5 0.5
2
0.646 0.354
2
0.5 0.5
8
1.0 1.0 1.0 0.0001 0.0 0.0 0.0 0.9999
8
1.0 1.0 1.0 0.0001 0.0 0.0 0.0 0.9999
8
1.0 1.0 1.0 0.0001 0.0 0.0 0.0 0.9999
8
1.0 1.0 1.0 0.0001 0.0 0.0 0.0 0.9999
8
1.0 1.0 1.0 0.0001 0.0 0.0 0.0 0.9999
4
1.0 0.0001 0.0 0.9999
16
1.0 1.0 1.0 1.0 1.0 1.0 1.0 0.0001 0.0 0.0 0.0 0.0 0.0 0.0 0.0 0.9999
8
1.0 1.0 1.0 0.0001 0.0 0.0 0.0 0.9999
8
1.0 1.0 1.0 0.0001 0.0 0.0 0.0 0.9999
8
1.0 1.0 1.0 0.0001 0.0 0.0 0.0 0.9999
8
1.0 1.0 1.0 0.0001 0.0 0.0 0.0 0.9999
8
1.0 1.0 1.0 0.0001 0.0 0.0 0.0 0.9999
8
1.0 1.0 1.0 0.0001 0.0 0.0 0.0 0.9999
2
0.5 0.5
2
0.5 0.5
2
0.5 0.5
2
0.5 0.5
2
0.1 0.9
2
0.02 0.98
8
0.8 0.8 0.8 8e-05 0.2 0.2 0.2 0.99992
32
0.9 0.9 0.9 0.9 0.9 0.9 0.9 0.9 0.9 0.9 0.9 0.9 0.9 0.9 0.9 9e-05 0.1 0.1 0.1 0.1 0.1 0.1 0.1 0.1 0.1 0.1 0.1 0.1 0.1 0.1 0.1 0.99991
8
0.8 0.8 0.8 8e-05 0.2 0.2 0.2 0.99992
2
0.02 0.98
8
0.8 0.0 0.0 0.0 0.2 1.0 1.0 1.0
8
0.8 0.8 0.8 8e-05 0.2 0.2 0.2 0.99992
64
0.9 0.9 0.9 0.9 0.9 0.9 0.9 0.9 0.9 0.9 0.9 0.9 0.9 0.9 0.9 0.9 0.9 0.9 0.9 0.9 0.9 0.9 0.9 0.9 0.9 0.9 0.9 0.9 0.9 0.9 0.9 9e-05 0.1 0.1 0.1 0.1 0.1 0.1 0.1 0.1 0.1 0.1 0.1 0.1 0.1 0.1 0.1 0.1 0.1 0.1 0.1 0.1 0.1 0.1 0.1 0.1 0.1 0.1 0.1 0.1 0.1 0.1 0.1 0.99991
8
0.8 0.8 0.8 8e-05 0.2 0.2 0.2 0.99992
16
0.8 0.8 0.8 0.8 0.8 0.8 0.8 8e-05 0.2 0.2 0.2 0.2 0.2 0.2 0.2 0.99992
32
0.9 0.9 0.9 0.9 0.9 0.9 0.9 0.9 0.9 0.9 0.9 0.9 0.9 0.9 0.9 9e-05 0.1 0.1 0.1 0.1 0.1 0.1 0.1 0.1 0.1 0.1 0.1 0.1 0.1 0.1 0.1 0.99991
2
0.02 0.98
64
0.9 0.9 0.9 0.9 0.9 0.9 0.9 0.9 0.9 0.9 0.9 0.9 0.9 0.9 0.9 0.9 0.9 0.9 0.9 0.9 0.9 0.9 0.9 0.9 0.9 0.9 0.9 0.9 0.9 0.9 0.9 9e-05 0.1 0.1 0.1 0.1 0.1 0.1 0.1 0.1 0.1 0.1 0.1 0.1 0.1 0.1 0.1 0.1 0.1 0.1 0.1 0.1 0.1 0.1 0.1 0.1 0.1 0.1 0.1 0.1 0.1 0.1 0.1 0.99991
8
0.8 0.8 0.8 8e-05 0.2 0.2 0.2 0.99992
64
0.9 0.9 0.9 0.9 0.9 0.9 0.9 0.9 0.9 0.9 0.9 0.9 0.9 0.9 0.9 0.9 0.9 0.9 0.9 0.9 0.9 0.9 0.9 0.9 0.9 0.9 0.9 0.9 0.9 0.9 0.9 9e-05 0.1 0.1 0.1 0.1 0.1 0.1 0.1 0.1 0.1 0.1 0.1 0.1 0.1 0.1 0.1 0.1 0.1 0.1 0.1 0.1 0.1 0.1 0.1 0.1 0.1 0.1 0.1 0.1 0.1 0.1 0.1 0.99991
64
0.9 0.9 0.9 0.9 0.9 0.9 0.9 0.9 0.9 0.9 0.9 0.9 0.9 0.9 0.9 0.9 0.9 0.9 0.9 0.9 0.9 0.9 0.9 0.9 0.9 0.9 0.9 0.9 0.9 0.9 0.9 9e-05 0.1 0.1 0.1 0.1 0.1 0.1 0.1 0.1 0.1 0.1 0.1 0.1 0.1 0.1 0.1 0.1 0.1 0.1 0.1 0.1 0.1 0.1 0.1 0.1 0.1 0.1 0.1 0.1 0.1 0.1 0.1 0.99991
16
0.9 0.9 0.9 0.9 0.9 0.9 0.9 9e-05 0.1 0.1 0.1 0.1 0.1 0.1 0.1 0.99991
8
0.8 0.0 0.0 0.0 0.2 1.0 1.0 1.0
2
0.02 0.98
8
0.8 0.8 0.8 8e-05 0.2 0.2 0.2 0.99992
64
0.9 0.9 0.9 0.9 0.9 0.9 0.9 0.9 0.9 0.9 0.9 0.9 0.9 0.9 0.9 0.9 0.9 0.9 0.9 0.9 0.9 0.9 0.9 0.9 0.9 0.9 0.9 0.9 0.9 0.9 0.9 9e-05 0.1 0.1 0.1 0.1 0.1 0.1 0.1 0.1 0.1 0.1 0.1 0.1 0.1 0.1 0.1 0.1 0.1 0.1 0.1 0.1 0.1 0.1 0.1 0.1 0.1 0.1 0.1 0.1 0.1 0.1 0.1 0.99991
8
0.8 0.8 0.8 8e-05 0.2 0.2 0.2 0.99992
64
0.9 0.9 0.9 0.9 0.9 0.9 0.9 0.9 0.9 0.9 0.9 0.9 0.9 0.9 0.9 0.9 0.9 0.9 0.9 0.9 0.9 0.9 0.9 0.9 0.9 0.9 0.9 0.9 0.9 0.9 0.9 9e-05 0.1 0.1 0.1 0.1 0.1 0.1 0.1 0.1 0.1 0.1 0.1 0.1 0.1 0.1 0.1 0.1 0.1 0.1 0.1 0.1 0.1 0.1 0.1 0.1 0.1 0.1 0.1 0.1 0.1 0.1 0.1 0.99991
64
0.9 0.9 0.9 0.9 0.9 0.9 0.9 0.9 0.9 0.9 0.9 0.9 0.9 0.9 0.9 0.9 0.9 0.9 0.9 0.9 0.9 0.9 0.9 0.9 0.9 0.9 0.9 0.9 0.9 0.9 0.9 9e-05 0.1 0.1 0.1 0.1 0.1 0.1 0.1 0.1 0.1 0.1 0.1 0.1 0.1 0.1 0.1 0.1 0.1 0.1 0.1 0.1 0.1 0.1 0.1 0.1 0.1 0.1 0.1 0.1 0.1 0.1 0.1 0.99991
64
0.9 0.9 0.9 0.9 0.9 0.9 0.9 0.9 0.9 0.9 0.9 0.9 0.9 0.9 0.9 0.9 0.9 0.9 0.9 0.9 0.9 0.9 0.9 0.9 0.9 0.9 0.9 0.9 0.9 0.9 0.9 9e-05 0.1 0.1 0.1 0.1 0.1 0.1 0.1 0.1 0.1 0.1 0.1 0.1 0.1 0.1 0.1 0.1 0.1 0.1 0.1 0.1 0.1 0.1 0.1 0.1 0.1 0.1 0.1 0.1 0.1 0.1 0.1 0.99991
16
0.9 0.9 0.9 0.9 0.9 0.9 0.9 9e-05 0.1 0.1 0.1 0.1 0.1 0.1 0.1 0.99991
2
0.02 0.98
2
0.02 0.98
8
0.9 0.9 0.9 9e-05 0.1 0.1 0.1 0.99991
8
0.8 0.8 0.8 8e-05 0.2 0.2 0.2 0.99992
8
0.8 0.8 0.8 8e-05 0.2 0.2 0.2 0.99992
64
0.9 0.9 0.9 0.9 0.9 0.9 0.9 0.9 0.9 0.9 0.9 0.9 0.9 0.9 0.9 0.9 0.9 0.9 0.9 0.9 0.9 0.9 0.9 0.9 0.9 0.9 0.9 0.9 0.9 0.9 0.9 9e-05 0.1 0.1 0.1 0.1 0.1 0.1 0.1 0.1 0.1 0.1 0.1 0.1 0.1 0.1 0.1 0.1 0.1 0.1 0.1 0.1 0.1 0.1 0.1 0.1 0.1 0.1 0.1 0.1 0.1 0.1 0.1 0.99991
8
0.8 0.8 0.8 8e-05 0.2 0.2 0.2 0.99992
2
0.02 0.98
2
0.02 0.98
2
0.02 0.98
2
0.02 0.98
8
0.8 0.8 0.8 8e-05 0.2 0.2 0.2 0.99992
8
0.8 0.8 0.8 8e-05 0.2 0.2 0.2 0.99992
8
0.9 0.9 0.9 9e-05 0.1 0.1 0.1 0.99991
8
0.9 0.9 0.9 9e-05 0.1 0.1 0.1 0.99991
8
0.8 0.8 0.8 8e-05 0.2 0.2 0.2 0.99992
8
0.8 0.0 0.0 0.0 0.2 1.0 1.0 1.0
16
0.8 0.8 0.8 0.8 0.8 0.8 0.8 8e-05 0.2 0.2 0.2 0.2 0.2 0.2 0.2 0.99992
8
0.8 0.8 0.8 8e-05 0.2 0.2 0.2 0.99992
2
0.02 0.98
8
0.9 0.9 0.9 9e-05 0.1 0.1 0.1 0.99991
8
0.9 0.9 0.9 9e-05 0.1 0.1 0.1 0.99991
8
0.8 0.8 0.8 8e-05 0.2 0.2 0.2 0.99992
8
0.8 0.8 0.8 8e-05 0.2 0.2 0.2 0.99992
8
0.8 0.8 0.8 8e-05 0.2 0.2 0.2 0.99992
2
0.02 0.98
8
0.9 0.9 0.9 9e-05 0.1 0.1 0.1 0.99991
8
0.8 0.8 0.8 8e-05 0.2 0.2 0.2 0.99992
16
0.8 0.8 0.8 0.8 0.8 0.8 0.8 8e-05 0.2 0.2 0.2 0.2 0.2 0.2 0.2 0.99992
16
0.8 0.8 0.8 0.8 0.8 0.8 0.8 8e-05 0.2 0.2 0.2 0.2 0.2 0.2 0.2 0.99992
8
0.8 0.8 0.8 8e-05 0.2 0.2 0.2 0.99992
8
0.9 0.9 0.9 9e-05 0.1 0.1 0.1 0.99991
8
0.8 0.8 0.8 8e-05 0.2 0.2 0.2 0.99992
2
0.02 0.98
16
0.9 0.9 0.9 0.9 0.9 0.9 0.9 9e-05 0.1 0.1 0.1 0.1 0.1 0.1 0.1 0.99991
8
0.8 0.8 0.8 8e-05 0.2 0.2 0.2 0.99992
8
0.8 0.8 0.8 8e-05 0.2 0.2 0.2 0.99992
16
0.8 0.8 0.8 0.8 0.8 0.8 0.8 8e-05 0.2 0.2 0.2 0.2 0.2 0.2 0.2 0.99992
16
0.8 0.8 0.8 0.8 0.8 0.8 0.8 8e-05 0.2 0.2 0.2 0.2 0.2 0.2 0.2 0.99992
2
0.02 0.98
8
0.8 0.8 0.8 8e-05 0.2 0.2 0.2 0.99992
8
0.8 0.8 0.8 8e-05 0.2 0.2 0.2 0.99992
32
0.9 0.9 0.9 0.9 0.9 0.9 0.9 0.9 0.9 0.9 0.9 0.9 0.9 0.9 0.9 9e-05 0.1 0.1 0.1 0.1 0.1 0.1 0.1 0.1 0.1 0.1 0.1 0.1 0.1 0.1 0.1 0.99991
8
0.8 0.8 0.8 8e-05 0.2 0.2 0.2 0.99992
16
0.9 0.9 0.9 0.9 0.9 0.9 0.9 9e-05 0.1 0.1 0.1 0.1 0.1 0.1 0.1 0.99991
2
0.02 0.98
8
0.8 0.8 0.8 8e-05 0.2 0.2 0.2 0.99992
16
0.9 0.9 0.9 0.9 0.9 0.9 0.9 9e-05 0.1 0.1 0.1 0.1 0.1 0.1 0.1 0.99991
8
0.8 0.8 0.8 8e-05 0.2 0.2 0.2 0.99992
128
0.9 0.9 0.9 0.9 0.9 0.9 0.9 0.9 0.9 0.9 0.9 0.9 0.9 0.9 0.9 0.9 0.9 0.9 0.9 0.9 0.9 0.9 0.9 0.9 0.9 0.9 0.9 0.9 0.9 0.9 0.9 0.9 0.9 0.9 0.9 0.9 0.9 0.9 0.9 0.9 0.9 0.9 0.9 0.9 0.9 0.9 0.9 0.9 0.9 0.9 0.9 0.9 0.9 0.9 0.9 0.9 0.9 0.9 0.9 0.9 0.9 0.9 0.9 9e-05 0.1 0.1 0.1 0.1 0.1 0.1 0.1 0.1 0.1 0.1 0.1 0.1 0.1 0.1 0.1 0.1 0.1 0.1 0.1 0.1 0.1 0.1 0.1 0.1 0.1 0.1 0.1 0.1 0.1 0.1 0.1 0.1 0.1 0.1 0.1 0.1 0.1 0.1 0.1 0.1 0.1 0.1 0.1 0.1 0.1 0.1 0.1 0.1 0.1 0.1 0.1 0.1 0.1 0.1 0.1 0.1 0.1 0.1 0.1 0.1 0.1 0.1 0.1 0.99991
32
0.9 0.9 0.9 0.9 0.9 0.9 0.9 0.9 0.9 0.9 0.9 0.9 0.9 0.9 0.9 9e-05 0.1 0.1 0.1 0.1 0.1 0.1 0.1 0.1 0.1 0.1 0.1 0.1 0.1 0.1 0.1 0.99991
8
0.8 0.0 0.0 0.0 0.2 1.0 1.0 1.0
8
0.9 0.9 0.9 9e-05 0.1 0.1 0.1 0.99991
16
0.9 0.9 0.9 0.9 0.9 0.9 0.9 9e-05 0.1 0.1 0.1 0.1 0.1 0.1 0.1 0.99991
2
0.02 0.98
64
0.8 0.8 0.8 0.8 0.8 0.8 0.8 0.8 0.8 0.8 0.8 0.8 0.8 0.8 0.8 0.8 0.8 0.8 0.8 0.8 0.8 0.8 0.8 0.8 0.8 0.8 0.8 0.8 0.8 0.8 0.8 8e-05 0.2 0.2 0.2 0.2 0.2 0.2 0.2 0.2 0.2 0.2 0.2 0.2 0.2 0.2 0.2 0.2 0.2 0.2 0.2 0.2 0.2 0.2 0.2 0.2 0.2 0.2 0.2 0.2 0.2 0.2 0.2 0.99992
16
0.8 0.8 0.8 0.8 0.8 8e-05 0.8 0.8 0.2 0.2 0.2 0.2 0.2 0.99992 0.2 0.2
16
0.8 0.8 0.8 0.8 0.8 0.8 0.8 8e-05 0.2 0.2 0.2 0.2 0.2 0.2 0.2 0.99992
32
0.9 0.9 0.9 0.9 0.9 0.9 0.9 0.9 0.9 0.9 0.9 0.9 0.9 0.9 0.9 9e-05 0.1 0.1 0.1 0.1 0.1 0.1 0.1 0.1 0.1 0.1 0.1 0.1 0.1 0.1 0.1 0.99991
8
0.8 0.8 0.8 8e-05 0.2 0.2 0.2 0.99992
16
0.8 0.8 0.8 0.8 0.8 0.8 0.8 8e-05 0.2 0.2 0.2 0.2 0.2 0.2 0.2 0.99992
2
0.5 0.5
2
0.5 0.5
2
0.5 0.5
2
0.5 0.5
4
0.8 0.0 0.2 1.0
2
0.7 0.3
4
0.8 0.0 0.2 1.0
4
0.9 0.0 0.1 1.0
4
0.9 0.0 0.1 1.0
4
0.95 0.0 0.05 1.0
2
0.1 0.9
4
0.9 0.0 0.1 1.0
2
0.5 0.5
2
0.5 0.5
2
0.3 0.7
2
0.5 0.5
2
0.5 0.5
2
0.7 0.3
2
0.1 0.9
2
0.5 0.5
2
0.5 0.5
2
0.3 0.7
2
0.3 0.7
2
0.5 0.5
2
0.5 0.5
2
0.5 0.5
2
0.5 0.5